NAME : census.-46391708.tour
COMMENT : Length = -46391708
COMMENT : Found by LKH [Keld Helsgaun] Tue May 25 08:54:33 2021
TYPE : TOUR
DIMENSION : 68
TOUR_SECTION
1
40
2
39
50
3
43
59
44
65
13
17
23
12
21
4
38
24
10
14
22
26
5
28
55
41
45
53
36
42
51
31
15
62
30
68
7
29
20
56
18
57
58
60
16
19
48
61
11
46
25
35
6
63
67
47
9
32
8
49
34
52
37
64
27
33
66
54
-1
EOF
